Minimize
  12 x_almond + 10 x_pistachio
Subject To
  c1: 5 x_almond + 3 x_pistachio <= 600
  c2: 8 x_almond + 6 x_pistachio <= 800
  c3: x_almond - 3.0 x_pistachio >= 0
Integer
  x_almond x_pistachio
End